SCIP Status        : solving was interrupted [time limit reached]
Total Time         :    3600.01
  solving          :    3600.00
  presolving       :       0.01 (included in solving)
  reading          :       0.01
  copying          :       0.73 (253 #copies) (minimal 0.00, maximal 0.05, average 0.00)
Original Problem   :
  Problem name     : wastepaper5
  Variables        : 104 (5 binary, 60 integer, 0 implicit integer, 39 continuous)
  Constraints      : 46 initial, 46 maximal
  Objective        : minimize, 1 non-zeros (abs.min = 1, abs.max = 1)
Presolved Problem  :
  Problem name     : t_wastepaper5
  Variables        : 268 (65 binary, 0 integer, 0 implicit integer, 203 continuous)
  Constraints      : 45 initial, 49 maximal
  Objective        : minimize, 1 non-zeros (abs.min = 1, abs.max = 1)
  Nonzeros         : 389 constraint, 58 clique table
Presolvers         :   ExecTime  SetupTime  Calls  FixedVars   AggrVars   ChgTypes  ChgBounds   AddHoles    DelCons    AddCons   ChgSides   ChgCoefs
  boundshift       :       0.00       0.00      0          0          0          0          0          0          0          0          0          0
  convertinttobin  :       0.00       0.00      0          0          0          0          0          0          0          0          0          0
  domcol           :       0.00       0.00      1          0          0          0          0          0          0          0          0          0
  dualagg          :       0.00       0.00      0          0          0          0          0          0          0          0          0          0
  dualcomp         :       0.00       0.00      1          0          0          0          0          0          0          0          0          0
  dualinfer        :       0.00       0.00      0          0          0          0          0          0          0          0          0          0
  dualsparsify     :       0.00       0.00      1          0          0          0          0          0          0          0          0          0
  gateextraction   :       0.00       0.00      0          0          0          0          0          0          0          0          0          0
  implics          :       0.00       0.00      2          0          0          0          0          0          0          0          0          0
  inttobinary      :       0.00       0.00      0          0          0          0          0          0          0          0          0          0
  qpkktref         :       0.00       0.00      0          0          0          0          0          0          0          0          0          0
  redvub           :       0.00       0.00      0          0          0          0          0          0          0          0          0          0
  sparsify         :       0.00       0.00      1          0          0          0          0          0          0          0          0          0
  stuffing         :       0.00       0.00      0          0          0          0          0          0          0          0          0          0
  trivial          :       0.00       0.00      3          0          0          0          0          0          0          0          0          0
  tworowbnd        :       0.00       0.00      0          0          0          0          0          0          0          0          0          0
  dualfix          :       0.00       0.00      3          0          0          0          0          0          0          0          0          0
  genvbounds       :       0.00       0.00      0          0          0          0          0          0          0          0          0          0
  probing          :       0.01       0.00      1          0          0          0          0          0          0          0          0          0
  pseudoobj        :       0.00       0.00      0          0          0          0          0          0          0          0          0          0
  symmetry         :       0.00       0.00      1          0          0          0          0          0          0          0          0          0
  vbounds          :       0.00       0.00      1          0          0          0          0          0          0          0          0          0
  varbound         :       0.00       0.00      0          0          0          0          0          0          0          0          0          0
  knapsack         :       0.00       0.00      0          0          0          0          0          0          0          0          0          0
  setppc           :       0.00       0.00      3          0          0          0          0          0          0          0          0          0
  linear           :       0.00       0.00      5          0          0          0          1          0          1          0          0          0
  logicor          :       0.00       0.00      0          0          0          0          0          0          0          0          0          0
  bounddisjunction :       0.00       0.00      0          0          0          0          0          0          0          0          0          0
  nonlinear        :       0.00       0.00      6          0          0          0          5          0          0          0          0          0
  benders          :       0.00       0.00      0          0          0          0          0          0          0          0          0          0
  components       :       0.00       0.00      1          0          0          0          0          0          0          0          0          0
  root node        :          -          -      -          7          -          -        112          -          -          -          -          -
Constraints        :     Number  MaxNumber  #Separate #Propagate    #EnfoLP    #EnfoRelax  #EnfoPS    #Check   #ResProp    Cutoffs    DomReds       Cuts    Applied      Conss   Children
  benderslp        :          0          0          0          0    1163929          0          0     107771          0          0          0          0          0          0          0
  integral         :          0          0          0          0    1163929          0          0     107771          0          0      20260          0          0        297    2256484
  varbound         :          0+         3          0      15382          0          0          0          0          0        182        943          0          0          0          0
  knapsack         :          0+         1          0        674          0          0          0          0          0          7         33          0          0          0          0
  setppc           :         11+        13         28    8999733          0          0          0     107767        545       4356    3062795          0          0          0          0
  linear           :         10+        16         28   11450403          1          0          0      88016        313      65325   10336210          0          0          0          0
  logicor          :          0+         5          0      20253          0          0          0          0          0         28       1126          0          0          0          0
  bounddisjunction :          0+         2          0         63          0          0          0          0          0          0          3          0          0          0          0
  nonlinear        :         24         24    2637407   11385050      32657          0          0      88016          0      63563  129607199    8481077    7541802          0      29596
  benders          :          0          0          0          0          1          0          0          9          0          0          0          0          0          0          0
  countsols        :          0          0          0          0          1          0          0          9          0          0          0          0          0          0          0
  components       :          0          0          0          0          0          0          0          0          0          0          0          0          0          0          0
Constraint Timings :  TotalTime  SetupTime   Separate  Propagate     EnfoLP     EnfoPS     EnfoRelax   Check    ResProp    SB-Prop
  benderslp        :       0.39       0.00       0.00       0.00       0.37       0.00       0.00       0.02       0.00       0.00
  integral         :      23.42       0.00       0.00       0.00      23.40       0.00       0.00       0.02       0.00       0.00
  varbound         :       0.02       0.00       0.00       0.02       0.00       0.00       0.00       0.00       0.00       0.00
  knapsack         :       0.00       0.00       0.00       0.00       0.00       0.00       0.00       0.00       0.00       0.00
  setppc           :      17.11       0.00       0.00      16.77       0.00       0.00       0.00       0.28       0.00       0.06
  linear           :      25.92       0.00       0.00      25.58       0.00       0.00       0.00       0.20       0.00       0.14
  logicor          :       0.03       0.00       0.00       0.03       0.00       0.00       0.00       0.00       0.00       0.00
  bounddisjunction :       0.00       0.00       0.00       0.00       0.00       0.00       0.00       0.00       0.00       0.00
  nonlinear        :    1480.66       0.00     153.52    1316.88       1.76       0.00       0.00       1.90       0.00       6.60
  benders          :       0.00       0.00       0.00       0.00       0.00       0.00       0.00       0.00       0.00       0.00
  countsols        :       0.00       0.00       0.00       0.00       0.00       0.00       0.00       0.00       0.00       0.00
  components       :       0.50       0.00       0.00       0.50       0.00       0.00       0.00       0.00       0.00       0.00
Propagators        : #Propagate   #ResProp    Cutoffs    DomReds
  dualfix          :          5          0          0          0
  genvbounds       :    6494768        187       2939    3635924
  nlobbt           :          0          0          0          0
  obbt             :          3          0          0          2
  probing          :          0          0          0          0
  pseudoobj        :   12554731          0          0         60
  redcost          :    4295144          0          0          0
  rootredcost      :          9          0          0          6
  symmetry         :          0          0          0          0
  vbounds          :    1728642          0          0          0
Propagator Timings :  TotalTime  SetupTime   Presolve  Propagate    ResProp    SB-Prop
  dualfix          :       0.00       0.00       0.00       0.00       0.00       0.00
  genvbounds       :      12.65       0.00       0.00      12.64       0.00       0.00
  nlobbt           :       0.00       0.00       0.00       0.00       0.00       0.00
  obbt             :       0.02       0.00       0.00       0.02       0.00       0.00
  probing          :       0.01       0.00       0.01       0.00       0.00       0.00
  pseudoobj        :       3.51       0.00       0.00       3.51       0.00       0.00
  redcost          :       5.15       0.00       0.00       5.14       0.00       0.00
  rootredcost      :       1.59       0.00       0.00       1.59       0.00       0.00
  symmetry         :       0.98       0.00       0.00       0.98       0.00       0.00
  vbounds          :       2.08       0.00       0.00       2.07       0.00       0.01
Conflict Analysis  :       Time      Calls    Success    DomReds  Conflicts   Literals    Reconvs ReconvLits   Dualrays   Nonzeros   LP Iters   (pool size: [10000,10000])
  propagation      :       0.02       9436        489          -        493        6.3          0        0.0          -          -          -
  infeasible LP    :      36.63     939475     442056          -        843        3.6          0        0.0     441927        7.3          0
  bound exceed. LP :       0.99      25346        106          -          0        0.0          0        0.0        106       36.6         42
  strong branching :       0.00          0          0          -          0        0.0          0        0.0          -          -          0
  pseudo solution  :       0.00          0          0          -          0        0.0          0        0.0          -          -          -
  applied globally :       0.00          -          -          0          5        3.0          -          -       1189          -          -
  applied locally  :          -          -          -        129        437        6.5          -          -     440844          -          -
Separators         :   ExecTime  SetupTime      Calls  RootCalls    Cutoffs    DomReds  FoundCuts ViaPoolAdd  DirectAdd    Applied ViaPoolApp  DirectApp      Conss
  cut pool         :       0.11          -     268653         50          -          -        153        157          -          -          -          -          -    (maximal pool size:        126)
  aggregation      :       0.37       0.00       1858         26          0          0       2043         61       1953        719         33        686          0
  > cmir           :          -          -          -          -          -          -          -         59       1400        456         31        425          -
  > flowcover      :          -          -          -          -          -          -          -          2        543        259          2        257          -
  > knapsackcover  :          -          -          -          -          -          -          -          0         10          4          0          4          -
  cgmip            :       0.00       0.00          0          0          0          0          0          0          0          0          0          0          0
  clique           :       0.00       0.00         26         26          0          0          0          0          0          0          0          0          0
  closecuts        :       0.00       0.00          0          0          0          0          0          0          0          0          0          0          0
  convexproj       :       0.00       0.00          0          0          0          0          0          0          0          0          0          0          0
  disjunctive      :       0.00       0.00          0          0          0          0          0          0          0          0          0          0          0
  eccuts           :       0.00       0.00          0          0          0          0          0          0          0          0          0          0          0
  gauge            :       0.00       0.00          0          0          0          0          0          0          0          0          0          0          0
  gomory           :       0.11       0.00       1832         10          0          0       4780         63       4732       2182         13       2169          0
  > gomorymi       :          -          -          -          -          -          -          -         63       4461       2171         13       2158          -
  > strongcg       :          -          -          -          -          -          -          -          0        271         11          0         11          -
  impliedbounds    :       0.01       0.00       1858         26          0          0          8         18          0         12         12          0          0
  interminor       :       0.00       0.00          0          0          0          0          0          0          0          0          0          0          0
  intobj           :       0.00       0.00          0          0          0          0          0          0          0          0          0          0          0
  mcf              :       0.00       0.00          1          1          0          0          0          0          0          0          0          0          0
  minor            :       0.00       0.00          0          0          0          0          0          0          0          0          0          0          0
  mixing           :       0.02       0.00       4396         28          0          0          1          1          0          0          0          0          0
  oddcycle         :       0.00       0.00          0          0          0          0          0          0          0          0          0          0          0
  rapidlearning    :       0.02       0.00          0          0          0          0          0          0          0          0          0          0          0
  rlt              :       0.00       0.00         10         10          0          0          6         14          0          5          5          0          0
  zerohalf         :       0.09       0.00       1842         20          0          0          1          0          1          1          0          1          0
Cutselectors       :   ExecTime  SetupTime      Calls  RootCalls   Selected     Forced   Filtered  RootSelec   RootForc   RootFilt 
  hybrid           :       3.79       0.00    2245159         29    7753637        499     688779         95          0         81
Pricers            :   ExecTime  SetupTime      Calls       Vars
  problem variables:       0.00          -          0          0
Branching Rules    :   ExecTime  SetupTime   BranchLP  BranchExt   BranchPS    Cutoffs    DomReds       Cuts      Conss   Children
  allfullstrong    :       0.00       0.00          0          0          0          0          0          0          0          0
  cloud            :       0.00       0.00          0          0          0          0          0          0          0          0
  distribution     :       0.00       0.00          0          0          0          0          0          0          0          0
  fullstrong       :       0.00       0.00          0          0          0          0          0          0          0          0
  inference        :       0.00       0.00          0          0          0          0          0          0          0          0
  leastinf         :       0.00       0.00          0          0          0          0          0          0          0          0
  lookahead        :       0.00       0.00          0          0          0          0          0          0          0          0
  mostinf          :       0.00       0.00          0          0          0          0          0          0          0          0
  multaggr         :       0.00       0.00          0          0          0          0          0          0          0          0
  nodereopt        :       0.00       0.00          0          0          0          0          0          0          0          0
  pscost           :       0.00       0.00          0          0          0          0          0          0          0          0
  random           :       0.00       0.00          0          0          0          0          0          0          0          0
  relpscost        :      22.56       0.00    1131272          0          0          0      20260          0        387    2256484
  vanillafullstrong:       0.00       0.00          0          0          0          0          0          0          0          0
Primal Heuristics  :   ExecTime  SetupTime      Calls      Found       Best
  LP solutions     :       0.02          -          -          1          1
  relax solutions  :       0.00          -          -          0          0
  pseudo solutions :       0.00          -          -          0          0
  strong branching :       0.06          -          -          0          0
  actconsdiving    :       0.00       0.00          0          0          0
  adaptivediving   :       1.24       0.00        636          0          0
  alns             :       5.89       0.00         58          1          1
  bound            :       0.00       0.00          0          0          0
  clique           :       0.00       0.00          1          0          0
  coefdiving       :       0.00       0.00          0          0          0
  completesol      :       0.00       0.00          0          0          0
  conflictdiving   :       0.21       0.00        383          0          0
  crossover        :       5.47       0.00         16          2          2
  dins             :       0.00       0.00          0          0          0
  distributiondivin:      23.42       0.00        318          0          0
  dps              :       0.00       0.00          0          0          0
  dualval          :       0.00       0.00          0          0          0
  farkasdiving     :       0.06       0.00          0          0          0
  feaspump         :       0.30       0.00        159          0          0
  fixandinfer      :       0.00       0.00          0          0          0
  fracdiving       :       0.11       0.00        403          0          0
  gins             :       0.53       0.00          0          0          0
  guideddiving     :       0.10       0.00        410          0          0
  indicator        :       0.65       0.00          0          0          0
  indicatordiving  :       0.00       0.00          0          0          0
  intdiving        :       0.00       0.00          0          0          0
  intshifting      :       0.05       0.00         37          0          0
  linesearchdiving :       0.12       0.00        413          0          0
  localbranching   :       0.00       0.00          0          0          0
  locks            :       0.00       0.00          1          0          0
  lpface           :       0.51       0.00          1          0          0
  mpec             :       0.88       0.00          3          0          0
  multistart       :       0.00       0.00          0          0          0
  mutation         :       0.00       0.00          0          0          0
  nlpdiving        :       0.46       0.00          8          0          0
  objpscostdiving  :       0.32       0.00        159          0          0
  octane           :       0.00       0.00          0          0          0
  ofins            :       0.39       0.00          0          0          0
  oneopt           :       0.53       0.00          9          0          0
  padm             :       0.00       0.00          0          0          0
  proximity        :       0.00       0.00          0          0          0
  pscostdiving     :       1.20       0.00        318          0          0
  randrounding     :       1.93       0.00      75152          0          0
  rens             :       0.87       0.00          1          1          1
  reoptsols        :       0.00       0.00          0          0          0
  repair           :       0.00       0.00          0          0          0
  rins             :      15.71       0.00        178          4          4
  rootsoldiving    :       0.49       0.00        159          0          0
  rounding         :       1.64       0.00      23690          0          0
  shiftandpropagate:       0.01       0.00          1          0          0
  shifting         :       0.35       0.00       7390          0          0
  simplerounding   :       0.78       0.00          0          0          0
  subnlp           :       5.17       0.00        203          0          0
  trivial          :       0.00       0.00          2          0          0
  trivialnegation  :       0.00       0.00          0          0          0
  trustregion      :       0.00       0.00          0          0          0
  trysol           :       0.51       0.00          0          0          0
  twoopt           :       0.00       0.00          0          0          0
  undercover       :       0.05       0.00          1          0          0
  vbounds          :       0.00       0.00          0          0          0
  veclendiving     :       0.11       0.00        406          0          0
  zeroobj          :       0.00       0.00          0          0          0
  zirounding       :       0.51       0.00       1000          0          0
  other solutions  :          -          -          -          0          -
Expressions        :   #IntEval  IntEvalTi   #RevProp  RevPropTi    DomReds    Cutoffs  #Estimate  EstimTime  Branching  #Simplify SimplifyTi Simplified
  pow              :   54286566       8.85    1603012       0.97    1605063          0   10155799       1.85     120261         25       0.00          0
  prod             : 1654430463     173.27   52713801      16.78   13820763       2511   28806583       2.55     252812        320       0.00          2
  sum              :  223742510      78.86  208316167     139.94   54946007       1613         24       0.00          0         59       0.00         24
  var              :   90069958       3.76          0       0.00          0          0          0       0.00          0        690       0.00          0
  varidx           :          0       0.00          0       0.00          0          0          0       0.00          0          0       0.00          0
Nlhdlrs            :    Detects  DetectAll DetectTime   #IntEval  IntEvalTi   #RevProp  RevPropTi    DomReds    Cutoffs   #Enforce   EnfoTime       Cuts  Branching
  soc              :          0          0       0.00          0       0.00          0       0.00          0          0          0       0.00          0          0
  convex           :          0          0       0.00          0       0.00          0       0.00          0          0          0       0.00          0          0
  concave          :          0          0       0.00          0       0.00          0       0.00          0          0          0       0.00          0          0
  quotient         :          0          0       0.00          0       0.00          0       0.00          0          0          0       0.00          0          0
  quadratic        :          0          0       0.00          0       0.00          0       0.00          0          0          0       0.00          0          0
  default          :        268       1876       0.00 1932459112     348.08  262633292     383.39   70371833       4334   38962266      42.54    8481077          0
  bilinear         :         10         10       0.00   46749002       1.74   17079666       0.68          0          0   10856135       1.03          0          0
  perspective      :          0          0       0.00          0       0.00          0       0.00          0          0          0       0.00          0          0
LP                 :       Time      Calls Iterations  Iter/call   Iter/sec  Time-0-It Calls-0-It    ItLimit
  primal LP        :     306.08     720505          0       0.00       0.00     306.00     720505
  dual LP          :    1056.59    4343339   19450042       4.68   18408.35      34.61     188824
  lex dual LP      :       0.00          0          0       0.00          -
  barrier LP       :       0.00          0          0       0.00          -       0.00          0
  resolve instable :       0.00          0          0       0.00          -
  diving/probing LP:       1.84       3191      18897       5.92   10261.13
  strong branching :       1.50       5730      35300       6.16   23579.03          -          -       1169
    (at root node) :          -          7        106      15.14          -
  conflict analysis:       0.00          4         42      10.50          -
NLP relaxation     :
  solve time       :       0.43 (8 calls)
  convexity        :  nonconvex (20 linear rows, 0 convex ineq., 0 nonconvex ineq., 24 nonlinear eq. or two-sided ineq.)
NLP Solvers        :  #Problems  ProblemTi    #Solves  SolveTime      #Iter  Time/Iter      #Okay #TimeLimit #IterLimit #LObjLimit #Interrupt  #NumError #EvalError  #OutOfMem #LicenseEr #OtherTerm   #GlobOpt    #LocOpt  #Feasible #LocInfeas #GlobInfea #Unbounded   #Unknown
  ipopt            :        108      12.83        115       3.71       3043       0.00        115          0          0          0          0          0          0          0          0          0          0          0          0        107          0          0          8
B&B Tree           :
  number of runs   :          1
  nodes            :    2262861 (1143040 internal, 1119821 leaves)
  feasible leaves  :          1
  infeas. leaves   :    1072976
  objective leaves :      46843
  nodes (total)    :    2262861 (1143040 internal, 1119821 leaves)
  nodes left       :      16054
  max depth        :         50
  max depth (total):         50
  backtracks       :     380611 (16.8%)
  early backtracks :          0 (0.0%)
  nodes exc. ref.  :          0 (0.0%)
  delayed cutoffs  :       4447
  repropagations   :      12654 (107132 domain reductions, 388 cutoffs)
  avg switch length:       3.58
  switching time   :     495.32
Root Node          :
  First LP value   : +0.00000000000000e+00
  First LP Iters   :          8 (8501.59 Iter/sec)
  First LP Time    :       0.00
  Final Dual Bound : +0.00000000000000e+00
  Final Root Iters :        194
  Root LP Estimate : +1.80694476918935e-03
Solution           :
  Solutions found  :          9 (9 improvements)
  First Solution   : +7.64644437182598e-02   (in run 1, after 1 nodes, 1.09 seconds, depth 0, found by <rens>)
  Gap First Sol.   :   infinite
  Gap Last Sol.    :   infinite
  Primal Bound     : +1.23813063756941e-03   (in run 1, after 50502 nodes, 100.32 seconds, depth 33, found by <relaxation>)
  Dual Bound       : +0.00000000000000e+00
  Gap              :   infinite
Integrals          :      Total       Avg%
  primal-dual      :  360000.09     100.00
  primal-ref       :          -          - (not evaluated)
  dual-ref         :          -          - (not evaluated)
